n = 50;
d = [23, 45, 82, 84, 38, 21, 29, 18, 41, 50, 38, 54, 16, 52, 52, 37, 54, 74, 62, 57, 57, 81, 61, 68, 30, 81, 79, 89, 89, 11, 33, 20, 91, 20, 66, 24, 84, 32, 55, 8, 56, 7, 54, 64, 39, 40, 83, 19, 8, 7];
m = 40;
pre = [1, 2, 3, 4, 6, 7, 8, 9, 11, 12, 13, 14, 16, 17, 18, 19, 21, 22, 23, 24, 26, 27, 28, 29, 31, 32, 33, 34, 36, 37, 38, 39, 41, 42, 43, 44, 46, 47, 48, 49];
post = [2, 3, 4, 5, 7, 8, 9, 10, 12, 13, 14, 15, 17, 18, 19, 20, 22, 23, 24, 25, 27, 28, 29, 30, 32, 33, 34, 35, 37, 38, 39, 40, 42, 43, 44, 45, 47, 48, 49, 50];
o = 5;
disj = [{3,8,14,17,22,27,33,38,42,48}, {1,7,15,19,23,28,35,37,45,47}, {2,6,11,18,25,29,32,39,44,49}, {5,10,12,20,24,30,31,40,43,50}, {4,9,13,16,21,26,34,36,41,46}];